! Solving for graph ../../../benchmarks/abp/S-sherman4.mtx.rnd
! Target value is set to 384
 ! --------------------------------------------------- CP Optimizer 22.2.0.0 --
 ! Minimization problem - 547 variables, 1887 constraints, 1 phase
 ! TimeLimit            = 1800
 ! LogVerbosity         = Terse
 ! Initial process time : 0.02s (0.02s extraction + 0.00s propagation)
 !  . Log search space  : 5293.7 (before), 5293.7 (after)
 !  . Memory usage      : 929.7 kB (before), 929.7 kB (after)
 ! Using parallel search with 8 workers.
 ! ----------------------------------------------------------------------------
 !          Best Branches  Non-fixed    W       Branch decision
                        0        547                 -
 + New bound is 1
                        0        547    1   F        -
 + New bound is 385
 *           385        1  0.20s        1      (gap is 0.00%)
 ! ----------------------------------------------------------------------------
 ! Search completed, 1 solution found.
 ! Best objective         : 385 (optimal - effective tol. is 0)
 ! Best bound             : 385
 ! ----------------------------------------------------------------------------
 ! Number of branches     : 4009
 ! Number of fails        : 141
 ! Total memory usage     : 52.7 MB (52.0 MB CP Optimizer + 0.8 MB Concert)
 ! Time spent in solve    : 0.20s (0.18s engine + 0.02s extraction)
 ! Search speed (br. / s) : 22272.2
 ! ----------------------------------------------------------------------------
! --------------------------------------------------------
! Best span = 385
! Labeling: 385 385 1 1 1 385 385 385 385 385 1 385 385 1 385 385 385 1 1 1 385 1 1 385 1 1 385 385 385 1 1 1 1 1 385 385 1 385 1 385 385 1 385 1 1 1 1 1 1 1 1 1 385 385 1 385 385 1 1 1 1 1 1 1 1 385 1 385 1 385 1 385 385 385 385 385 385 1 385 385 1 1 385 1 385 385 1 385 385 385 385 385 1 1 385 1 385 1 1 1 1 385 385 1 1 1 1 385 1 385 1 385 385 385 385 1 1 1 1 1 385 1 1 1 1 1 1 385 1 1 385 1 1 1 1 385 385 1 385 1 1 1 385 385 385 385 385 385 1 385 385 1 385 385 1 1 1 1 385 385 385 385 1 385 1 1 385 1 385 385 385 385 1 1 385 1 1 1 385 385 385 385 385 385 385 1 1 1 1 385 385 1 385 1 1 1 385 385 385 1 385 385 385 1 1 1 385 385 1 385 385 1 385 1 385 385 1 385 1 1 1 1 385 385 385 1 385 1 1 385 1 385 385 1 1 1 1 385 385 385 1 1 385 385 1 1 1 1 385 385 385 385 1 1 1 1 385 1 1 385 385 1 385 385 1 1 1 1 1 1 385 1 1 385 385 385 1 385 1 1 1 385 1 385 1 1 385 1 1 385 385 1 1 1 1 1 385 385 1 1 385 385 385 385 385 1 385 385 385 385 1 1 385 1 385 1 385 385 1 385 1 1 385 385 1 385 385 1 1 385 385 385 1 1 1 1 1 1 385 385 1 1 385 1 1 385 1 385 1 385 385 385 1 385 1 385 385 385 385 385 385 385 385 1 385 1 1 1 1 385 1 385 385 385 385 1 385 385 1 385 385 385 1 1 1 385 1 385 385 385 385 1 385 1 1 1 385 385 385 1 1 1 385 385 1 385 1 385 385 1 385 1 1 1 1 385 385 385 1 385 385 385 385 1 1 1 385 385 385 385 1 385 385 1 1 1 1 385 1 1 385 385 1 385 385 385 1 385 385 1 385 1 1 1 1 385 385 385 385 385 1 1 385 385 1 385 1 1 1 1 385 1 1 385 385 1 385 1 385 1 1 385 385 1 385 385 385 385 1 385 385 385 385 1 385 1 385 1 385 385 1 385 1 1 1 1 1 1 385 1 1 1 1 1 1 1 385 1 385 1 385 385 385 1 385 385 1 1 1 385 1 385 385 1 1 385 385 385 1 385 385 385 385 385 1 1 
! -------------------------------------------------------- 
